<?xml version = "1.0" standalone="yes"?>
<!-- This file has been generated by DOcplex version 2.23.222  -->
<CPLEXSolution version="1.0">
 <header
   problemName="CVRP"
   objectiveValue="10186.9"
  />
 <variables>
  <variable name="x_0_1" index="0" value="1.00000"/>
  <variable name="x_0_2" index="1" value="1.00000"/>
  <variable name="x_0_3" index="2" value="1.00000"/>
  <variable name="x_0_7" index="6" value="1.00000"/>
  <variable name="x_0_8" index="7" value="1.00000"/>
  <variable name="x_0_9" index="8" value="1.00000"/>
  <variable name="x_0_13" index="12" value="1.00000"/>
  <variable name="x_0_16" index="15" value="1.00000"/>
  <variable name="x_0_19" index="18" value="1.00000"/>
  <variable name="x_0_20" index="19" value="1.00000"/>
  <variable name="x_0_21" index="20" value="1.00000"/>
  <variable name="x_1_0" index="21" value="1.00000"/>
  <variable name="x_2_15" index="56" value="1.00000"/>
  <variable name="x_3_18" index="80" value="1.00000"/>
  <variable name="x_4_0" index="84" value="1.00000"/>
  <variable name="x_5_0" index="105" value="1.00000"/>
  <variable name="x_6_0" index="126" value="1.00000"/>
  <variable name="x_7_6" index="153" value="1.00000"/>
  <variable name="x_8_0" index="168" value="1.00000"/>
  <variable name="x_9_14" index="202" value="1.00000"/>
  <variable name="x_10_0" index="210" value="1.00000"/>
  <variable name="x_11_4" index="235" value="1.00000"/>
  <variable name="x_12_0" index="252" value="1.00000"/>
  <variable name="x_13_12" index="285" value="1.00000"/>
  <variable name="x_14_10" index="304" value="1.00000"/>
  <variable name="x_15_0" index="315" value="1.00000"/>
  <variable name="x_16_0" index="336" value="1.00000"/>
  <variable name="x_17_0" index="357" value="1.00000"/>
  <variable name="x_18_0" index="378" value="1.00000"/>
  <variable name="x_19_17" index="416" value="1.00000"/>
  <variable name="x_20_11" index="431" value="1.00000"/>
  <variable name="x_21_5" index="446" value="1.00000"/>
  <variable name="u_1" index="462" value="23.00000"/>
  <variable name="u_2" index="463" value="17.00000"/>
  <variable name="u_3" index="464" value="9.00000"/>
  <variable name="u_4" index="465" value="21.00000"/>
  <variable name="u_5" index="466" value="23.00000"/>
  <variable name="u_6" index="467" value="23.00000"/>
  <variable name="u_7" index="468" value="15.00000"/>
  <variable name="u_8" index="469" value="23.00000"/>
  <variable name="u_9" index="470" value="9.00000"/>
  <variable name="u_10" index="471" value="23.00000"/>
  <variable name="u_11" index="472" value="20.00000"/>
  <variable name="u_12" index="473" value="23.00000"/>
  <variable name="u_13" index="474" value="15.00000"/>
  <variable name="u_14" index="475" value="11.00000"/>
  <variable name="u_15" index="476" value="23.00000"/>
  <variable name="u_16" index="477" value="11.00000"/>
  <variable name="u_17" index="478" value="23.00000"/>
  <variable name="u_18" index="479" value="23.00000"/>
  <variable name="u_19" index="480" value="1.00000"/>
  <variable name="u_20" index="481" value="5.00000"/>
  <variable name="u_21" index="482" value="7.00000"/>
 </variables>
</CPLEXSolution>
